13
0 1 4 3 3 8 8 7 9 2 5 9 8 
6 0 1 5 7 5 6 6 8 6 2 4 6 
8 9 0 1 7 6 8 5 9 6 4 3 2 
8 6 2 0 1 4 3 9 4 7 3 9 4 
4 6 6 5 0 1 5 2 9 9 6 8 6 
5 8 8 8 6 0 1 9 8 5 8 6 4 
5 5 3 5 9 4 0 1 3 6 7 4 8 
4 5 9 4 8 4 7 0 1 9 2 6 3 
9 4 8 9 6 4 2 5 0 1 4 6 4 
9 3 3 4 6 6 4 6 3 0 1 8 6 
2 2 8 3 8 7 8 2 8 5 0 1 3 
7 8 7 3 3 8 5 7 8 8 3 0 1 
1 2 6 6 4 5 5 3 5 5 9 9 0 
